
<<< setup


<<< generate

Version identifier: 22.1.1.0 | 2022-11-27 | 9160aff4d
Tried aggregator 1 time.
MIQCP Presolve eliminated 526 rows and 1 columns.
MIQCP Presolve modified 1527 coefficients.
Reduced MIQCP has 4495 rows, 4211 columns, and 45483 nonzeros.
Reduced MIQCP has 220 binaries, 0 generals, 0 SOSs, and 0 indicators.
Reduced MIQCP has 674 quadratic constraints.
Presolve time = 0,19 sec. (155,31 ticks)
Probing fixed 0 vars, tightened 2809 bounds.
Probing time = 0,09 sec. (80,45 ticks)
Clique table members: 904.
MIP emphasis: balance optimality and feasibility.
MIP search method: dynamic search.
Parallel mode: deterministic, using up to 12 threads.
Root relaxation solution time = 0,03 sec. (22,72 ticks)

        Nodes                                         Cuts/
   Node  Left     Objective  IInf  Best Integer    Best Bound    ItCnt     Gap

      0     0     3036,7929     0                  13846,3117      142         
      0     0     3028,4544    70                     Cone: 1      269         
      0     0     3019,9770   111                     Cone: 2      409         
      0     0     3014,7384   105                     Cone: 3      576         
      0     0     3013,0654   118                     Cone: 4      687         
      0     0     3011,7418   118                     Cone: 5      810         
      0     0     3010,1307   122                     Cone: 6      962         
